benchmark_str_length/p2_10_14-0.txt
{
	"num_strings": 10,
	"alphabet": "ACGT",
	"strings": [
		"CTAAACTTAGCTAC",
		"CATTGTATAAC",
		"G",
		"ACATTCTCGTTTTA",
		"CGCAC",
		"GTCCCCCTAAG",
		"GGATAGTTGGAATG",
		"CGACCGG",
		"TCTATGCTTGTCTT",
		"AATTCAGGCAGA"
	],
	"str_length":[14,11,1,14,5,11,14,7,14,12]
}